p cnf 38 185
1 -2 0
1 -3 0
1 -4 0
1 -5 0
1 -6 0
1 -7 0
1 -8 0
1 -9 0
1 -10 0
1 -11 0
1 -12 0
1 -13 0
1 -14 0
1 -15 0
1 -16 0
1 -17 0
1 -18 0
1 -19 0
1 -20 0
1 -21 0
1 -22 0
1 -23 0
1 -24 0
1 -25 0
1 -26 0
1 -27 0
1 -28 0
2 3 4 5 6 7 8 9 10 11 12 13 14 15 16 17 18 19 20 21 22 23 24 25 26 27 28 -1 0
29 30 0
31 32 30 0
33 30 0
-29 -33 -30 -31 0
-29 -33 -30 -32 0
-34 35 0
2 3 4 5 6 7 8 9 10 11 12 13 14 15 16 17 18 19 20 21 22 23 24 25 26 27 28 -30 35 0
1 35 0
34 -2 -1 -35 0
34 -3 -1 -35 0
34 -4 -1 -35 0
34 -5 -1 -35 0
34 -6 -1 -35 0
34 -7 -1 -35 0
34 -8 -1 -35 0
34 -9 -1 -35 0
34 -10 -1 -35 0
34 -11 -1 -35 0
34 -12 -1 -35 0
34 -13 -1 -35 0
34 -14 -1 -35 0
34 -15 -1 -35 0
34 -16 -1 -35 0
34 -17 -1 -35 0
34 -18 -1 -35 0
34 -19 -1 -35 0
34 -20 -1 -35 0
34 -21 -1 -35 0
34 -22 -1 -35 0
34 -23 -1 -35 0
34 -24 -1 -35 0
34 -25 -1 -35 0
34 -26 -1 -35 0
34 -27 -1 -35 0
34 -28 -1 -35 0
34 30 -1 -35 0
-34 36 0
2 3 4 5 6 7 8 9 10 11 12 13 14 15 16 17 18 19 20 21 22 23 24 25 26 27 28 36 0
34 -2 -36 0
34 -3 -36 0
34 -4 -36 0
34 -5 -36 0
34 -6 -36 0
34 -7 -36 0
34 -8 -36 0
34 -9 -36 0
34 -10 -36 0
34 -11 -36 0
34 -12 -36 0
34 -13 -36 0
34 -14 -36 0
34 -15 -36 0
34 -16 -36 0
34 -17 -36 0
34 -18 -36 0
34 -19 -36 0
34 -20 -36 0
34 -21 -36 0
34 -22 -36 0
34 -23 -36 0
34 -24 -36 0
34 -25 -36 0
34 -26 -36 0
34 -27 -36 0
34 -28 -36 0
-34 37 0
2 3 4 5 6 7 8 9 10 11 12 13 14 15 16 17 18 19 20 21 22 23 24 25 26 27 28 -30 37 0
36 37 0
34 -2 -36 -37 0
34 -3 -36 -37 0
34 -4 -36 -37 0
34 -5 -36 -37 0
34 -6 -36 -37 0
34 -7 -36 -37 0
34 -8 -36 -37 0
34 -9 -36 -37 0
34 -10 -36 -37 0
34 -11 -36 -37 0
34 -12 -36 -37 0
34 -13 -36 -37 0
34 -14 -36 -37 0
34 -15 -36 -37 0
34 -16 -36 -37 0
34 -17 -36 -37 0
34 -18 -36 -37 0
34 -19 -36 -37 0
34 -20 -36 -37 0
34 -21 -36 -37 0
34 -22 -36 -37 0
34 -23 -36 -37 0
34 -24 -36 -37 0
34 -25 -36 -37 0
34 -26 -36 -37 0
34 -27 -36 -37 0
34 -28 -36 -37 0
34 30 -36 -37 0
29 38 0
31 32 38 0
33 38 0
-29 -33 -31 -38 0
-29 -33 -32 -38 0
34 -2 -35 -37 0
34 -3 -35 -37 0
34 -4 -35 -37 0
34 -5 -35 -37 0
34 -6 -35 -37 0
34 -7 -35 -37 0
34 -8 -35 -37 0
34 -9 -35 -37 0
34 -10 -35 -37 0
34 -11 -35 -37 0
34 -12 -35 -37 0
34 -13 -35 -37 0
34 -14 -35 -37 0
34 -15 -35 -37 0
34 -16 -35 -37 0
34 -17 -35 -37 0
34 -18 -35 -37 0
34 -19 -35 -37 0
34 -20 -35 -37 0
34 -21 -35 -37 0
34 -22 -35 -37 0
34 -23 -35 -37 0
34 -24 -35 -37 0
34 -25 -35 -37 0
34 -26 -35 -37 0
34 -27 -35 -37 0
34 -28 -35 -37 0
34 -35 -37 38 0
34 -2 -35 0
34 -3 -35 0
34 -4 -35 0
34 -5 -35 0
34 -6 -35 0
34 -7 -35 0
34 -8 -35 0
34 -9 -35 0
34 -10 -35 0
34 -11 -35 0
34 -12 -35 0
34 -13 -35 0
34 -14 -35 0
34 -15 -35 0
34 -16 -35 0
34 -17 -35 0
34 -18 -35 0
34 -19 -35 0
34 -20 -35 0
34 -21 -35 0
34 -22 -35 0
34 -23 -35 0
34 -24 -35 0
34 -25 -35 0
34 -26 -35 0
34 -27 -35 0
34 -28 -35 0
34 38 -35 0
c 31 k!0
c 32 k!1
c 29 k!2
c 33 k!3
c 2 k!4
c 3 k!5
c 4 k!6
c 5 k!7
c 6 k!8
c 7 k!9
c 8 k!10
c 9 k!11
c 10 k!12
c 11 k!13
c 12 k!14
c 13 k!15
c 14 k!16
c 15 k!17
c 16 k!18
c 17 k!19
c 18 k!20
c 19 k!21
c 20 k!22
c 21 k!23
c 22 k!24
c 23 k!25
c 24 k!26
c 25 k!27
c 26 k!28
c 27 k!29
c 28 k!30
c 34 k!31
c 1 k!32
c 30 k!33
c 35 k!34
c 36 k!35
c 37 k!36
c 38 k!37